4 
5  06 28 44 58 
6  07 12 17 22 28 32 38 42 47 52 57 
7  02 07 13 17 23 27 32 37 42 47 52 57 
8  02 07 12 17 22 27 32 37 42 47 52 57 
9  02 07 15 22 30 37 45 53 
10  01 08 16 25 32 40 47 55 
11  02 10 17 25 32 40 47 55 
12  02 10 17 25 32 40 47 55 
13  02 10 17 25 32 40 47 55 
14  02 10 17 25 32 41 48 53 58 
15  03 08 13 17 23 28 32 38 43 47 53 58 
16  02 08 13 17 23 28 32 38 43 47 53 58 
17  02 08 13 17 23 28 32 38 43 47 53 58 
18  02 08 13 17 23 28 32 38 43 47 53 58 
19  07 12 19 26 34 42 49 58 
20  07 16 24 31 38 46 54 
21  01 09 16 24 31 39 46 58 
22  13 28 43 58 
23  13 28 
0 
